100
1000
200
199
198
197
197
197
196
195
194
194
194
194
193
193
193
193
191
190
190
189
187
185
185
184
184
184
183
182
182
180
179
178
178
178
177
177
177
176
176
175
175
174
174
174
174
174
173
173
172
172
171
171
171
171
171
170
169
169
169
169
169
169
169
168
168
168
167
167
167
166
164
164
164
164
162
162
162
161
161
161
159
159
159
159
159
158
158
158
156
156
156
156
156
154
154
153
151
151
150
150
